DATASET = "thpack2";
INSTANCE = "003";

WIDTH = 233;
HEIGHT = 220;
LENGTH = 587;

NO_OF_SHAPES = 5;
size = [|
  97,81,27 |
  102,78,39 |
  113,46,36 |
  66,50,42 |
  101,30,26 |
|];

verticality = [|
  0,0,1 |
  0,0,1 |
  0,1,1 |
  1,1,1 |
  0,1,1 |
|];

box_count = [
  27,
  31,
  35,
  37,
  36,
];
